p cnf 12 50 
-3 12 -9 0
-2 4 -9 0
5 9 1 0
8 10 12 0
-1 -12 -7 0
3 8 -6 0
5 1 3 0
-6 5 8 0
-5 -3 4 0
-3 4 -10 0
8 -12 7 0
-7 -2 -9 0
-6 7 12 0
5 10 2 0
2 -3 -9 0
2 11 3 0
-4 -3 -9 0
1 9 -4 0
-3 2 10 0
3 -8 -10 0
11 2 -12 0
-3 1 -8 0
-8 5 3 0
8 7 -1 0
8 5 4 0
11 -9 -1 0
-3 -9 -1 0
10 6 -12 0
10 12 11 0
3 -10 -5 0
7 -5 3 0
-3 8 9 0
-10 11 -12 0
-9 2 3 0
11 -3 6 0
-3 5 -9 0
4 2 11 0
9 4 11 0
12 6 -3 0
6 -4 10 0
-3 -5 -2 0
1 -6 -8 0
6 9 -3 0
-2 11 6 0
-5 -12 10 0
-8 1 -6 0
-12 2 11 0
-4 1 -5 0
-8 2 -12 0
1 -4 11 0
